(set-logic QF_LIA)
(declare-fun x0 () Int)
(declare-fun x1 () Int)
(declare-fun x2 () Int)
(declare-fun x3 () Int)
(declare-fun x4 () Int)
(declare-fun x5 () Int)
(declare-fun x6 () Int)
(declare-fun x7 () Int)
(declare-fun x8 () Int)
(declare-fun x9 () Int)
(declare-fun A0 () Bool)
(declare-fun A1 () Bool)
(declare-fun A2 () Bool)
(declare-fun A3 () Bool)
(declare-fun A4 () Bool)
(declare-fun A5 () Bool)
(declare-fun A6 () Bool)
(declare-fun A7 () Bool)
(declare-fun A8 () Bool)
(declare-fun A9 () Bool)
(assert (let ((.def_0 (* (- 1) x1))) (let ((.def_1 (< .def_0 (- 1)))) (let ((.def_2 (not .def_1))) (let ((.def_3 (and A2 .def_2))) (let ((.def_4 (* (- 1) x5))) (let ((.def_5 (< .def_4 (- 1)))) (let ((.def_6 (not .def_5))) (let ((.def_7 (not A8))) (let ((.def_8 (or .def_7 .def_6))) (let ((.def_9 (= .def_8 .def_3))) (let ((.def_10 (not .def_9))) (let ((.def_11 (not A1))) (let ((.def_12 (or .def_11 A1))) (let ((.def_13 (not .def_12))) (let ((.def_14 (* 1 x0))) (let ((.def_15 (* (- 1) x4))) (let ((.def_16 (+ .def_15 .def_14))) (let ((.def_17 (< .def_16 1))) (let ((.def_18 (not .def_17))) (let ((.def_19 (* 1 x2))) (let ((.def_20 (+ .def_19 .def_4))) (let ((.def_21 (< .def_20 (- 1)))) (let ((.def_22 (not .def_21))) (let ((.def_23 (and .def_22 .def_18))) (let ((.def_24 (not .def_23))) (let ((.def_25 (and .def_24 .def_13))) (let ((.def_26 (or .def_25 .def_10))) (let ((.def_27 (not .def_26))) (let ((.def_28 (not A4))) (let ((.def_29 (and A2 .def_28))) (let ((.def_30 (* (- 1) x2))) (let ((.def_31 (+ .def_4 .def_30))) (let ((.def_32 (< .def_31 (- 1)))) (let ((.def_33 (or A8 .def_32))) (let ((.def_34 (or .def_33 .def_29))) (let ((.def_35 (* (- 1) x8))) (let ((.def_36 (< .def_35 1))) (let ((.def_37 (not .def_36))) (let ((.def_38 (= .def_37 A3))) (let ((.def_39 (< .def_30 1))) (let ((.def_40 (not .def_39))) (let ((.def_41 (or A8 .def_40))) (let ((.def_42 (or .def_41 .def_38))) (let ((.def_43 (and .def_42 .def_34))) (let ((.def_44 (not .def_43))) (let ((.def_45 (and .def_44 .def_27))) (let ((.def_46 (not .def_45))) (let ((.def_47 (* 1 x7))) (let ((.def_48 (* 1 x6))) (let ((.def_49 (+ .def_48 .def_47))) (let ((.def_50 (< .def_49 1))) (let ((.def_51 (not .def_50))) (let ((.def_52 (< .def_47 1))) (let ((.def_53 (and .def_52 .def_51))) (let ((.def_54 (not .def_52))) (let ((.def_55 (or .def_54 A4))) (let ((.def_56 (not .def_55))) (let ((.def_57 (and .def_56 .def_53))) (let ((.def_58 (not .def_57))) (let ((.def_59 (* 1 x9))) (let ((.def_60 (* (- 1) x0))) (let ((.def_61 (+ .def_60 .def_59))) (let ((.def_62 (< .def_61 (- 1)))) (let ((.def_63 (and A2 .def_62))) (let ((.def_64 (not .def_63))) (let ((.def_65 (* (- 1) x9))) (let ((.def_66 (+ .def_0 .def_65))) (let ((.def_67 (< .def_66 1))) (let ((.def_68 (not .def_67))) (let ((.def_69 (+ .def_14 .def_0))) (let ((.def_70 (< .def_69 (- 1)))) (let ((.def_71 (and .def_70 .def_68))) (let ((.def_72 (not .def_71))) (let ((.def_73 (or .def_72 .def_64))) (let ((.def_74 (= .def_73 .def_58))) (let ((.def_75 (and A0 A9))) (let ((.def_76 (* 1 x4))) (let ((.def_77 (+ .def_59 .def_76))) (let ((.def_78 (< .def_77 (- 1)))) (let ((.def_79 (not .def_78))) (let ((.def_80 (not A7))) (let ((.def_81 (and .def_80 .def_79))) (let ((.def_82 (= .def_81 .def_75))) (let ((.def_83 (not .def_82))) (let ((.def_84 (not A0))) (let ((.def_85 (< .def_47 (- 1)))) (let ((.def_86 (not .def_85))) (let ((.def_87 (or .def_86 .def_84))) (let ((.def_88 (+ .def_14 .def_15))) (let ((.def_89 (< .def_88 1))) (let ((.def_90 (or .def_52 .def_89))) (let ((.def_91 (not .def_90))) (let ((.def_92 (or .def_91 .def_87))) (let ((.def_93 (= .def_92 .def_83))) (let ((.def_94 (and .def_93 .def_74))) (let ((.def_95 (and .def_94 .def_46))) (let ((.def_96 (not .def_95))) (let ((.def_97 (< .def_15 1))) (let ((.def_98 (not .def_97))) (let ((.def_99 (< .def_65 (- 1)))) (let ((.def_100 (= .def_99 .def_98))) (let ((.def_101 (+ .def_35 .def_48))) (let ((.def_102 (< .def_101 (- 1)))) (let ((.def_103 (not .def_102))) (let ((.def_104 (and .def_103 A9))) (let ((.def_105 (not .def_104))) (let ((.def_106 (and .def_105 .def_100))) (let ((.def_107 (+ .def_47 .def_65))) (let ((.def_108 (< .def_107 1))) (let ((.def_109 (< .def_59 1))) (let ((.def_110 (= .def_109 .def_108))) (let ((.def_111 (not A5))) (let ((.def_112 (or A9 .def_111))) (let ((.def_113 (not .def_112))) (let ((.def_114 (or .def_113 .def_110))) (let ((.def_115 (and .def_114 .def_106))) (let ((.def_116 (not .def_115))) (let ((.def_117 (< .def_14 1))) (let ((.def_118 (not .def_117))) (let ((.def_119 (< .def_0 1))) (let ((.def_120 (not .def_119))) (let ((.def_121 (and .def_120 .def_118))) (let ((.def_122 (* 1 x5))) (let ((.def_123 (+ .def_122 .def_59))) (let ((.def_124 (< .def_123 (- 1)))) (let ((.def_125 (and .def_124 .def_40))) (let ((.def_126 (not .def_125))) (let ((.def_127 (and .def_126 .def_121))) (let ((.def_128 (and A0 A2))) (let ((.def_129 (not .def_128))) (let ((.def_130 (* 1 x3))) (let ((.def_131 (+ .def_59 .def_130))) (let ((.def_132 (< .def_131 1))) (let ((.def_133 (not .def_132))) (let ((.def_134 (and .def_1 .def_133))) (let ((.def_135 (or .def_134 .def_129))) (let ((.def_136 (not .def_135))) (let ((.def_137 (or .def_136 .def_127))) (let ((.def_138 (or .def_137 .def_116))) (let ((.def_139 (not .def_138))) (let ((.def_140 (+ .def_19 .def_35))) (let ((.def_141 (< .def_140 (- 1)))) (let ((.def_142 (+ .def_48 .def_65))) (let ((.def_143 (< .def_142 1))) (let ((.def_144 (or .def_143 .def_141))) (let ((.def_145 (not .def_144))) (let ((.def_146 (not A2))) (let ((.def_147 (not A9))) (let ((.def_148 (or .def_147 .def_146))) (let ((.def_149 (not .def_148))) (let ((.def_150 (and .def_149 .def_145))) (let ((.def_151 (+ .def_130 .def_30))) (let ((.def_152 (< .def_151 (- 1)))) (let ((.def_153 (+ .def_19 .def_14))) (let ((.def_154 (< .def_153 1))) (let ((.def_155 (not .def_154))) (let ((.def_156 (or .def_155 .def_152))) (let ((.def_157 (and .def_147 A8))) (let ((.def_158 (not .def_157))) (let ((.def_159 (or .def_158 .def_156))) (let ((.def_160 (not .def_159))) (let ((.def_161 (or .def_160 .def_150))) (let ((.def_162 (or A7 .def_11))) (let ((.def_163 (not .def_162))) (let ((.def_164 (< .def_59 (- 1)))) (let ((.def_165 (and .def_164 A7))) (let ((.def_166 (not .def_165))) (let ((.def_167 (and .def_166 .def_163))) (let ((.def_168 (not .def_167))) (let ((.def_169 (not A6))) (let ((.def_170 (< .def_130 1))) (let ((.def_171 (not .def_170))) (let ((.def_172 (or .def_171 .def_169))) (let ((.def_173 (not .def_172))) (let ((.def_174 (* (- 1) x6))) (let ((.def_175 (+ .def_174 .def_0))) (let ((.def_176 (< .def_175 (- 1)))) (let ((.def_177 (not .def_176))) (let ((.def_178 (and .def_169 .def_177))) (let ((.def_179 (and .def_178 .def_173))) (let ((.def_180 (not .def_179))) (let ((.def_181 (= .def_180 .def_168))) (let ((.def_182 (and .def_181 .def_161))) (let ((.def_183 (and .def_182 .def_139))) (let ((.def_184 (not .def_183))) (let ((.def_185 (or .def_184 .def_96))) (let ((.def_186 (< .def_60 1))) (let ((.def_187 (= .def_186 A3))) (let ((.def_188 (not .def_187))) (let ((.def_189 (* (- 1) x3))) (let ((.def_190 (< .def_189 (- 1)))) (let ((.def_191 (not .def_190))) (let ((.def_192 (* 1 x8))) (let ((.def_193 (< .def_192 1))) (let ((.def_194 (and .def_193 .def_191))) (let ((.def_195 (or .def_194 .def_188))) (let ((.def_196 (not .def_195))) (let ((.def_197 (+ .def_60 .def_0))) (let ((.def_198 (< .def_197 (- 1)))) (let ((.def_199 (and .def_147 .def_198))) (let ((.def_200 (not .def_199))) (let ((.def_201 (not A3))) (let ((.def_202 (< .def_60 (- 1)))) (let ((.def_203 (not .def_202))) (let ((.def_204 (or .def_203 .def_201))) (let ((.def_205 (and .def_204 .def_200))) (let ((.def_206 (not .def_205))) (let ((.def_207 (or .def_206 .def_196))) (let ((.def_208 (not .def_207))) (let ((.def_209 (and .def_28 A6))) (let ((.def_210 (or .def_7 A9))) (let ((.def_211 (and .def_210 .def_209))) (let ((.def_212 (and .def_7 .def_201))) (let ((.def_213 (not .def_212))) (let ((.def_214 (and A6 .def_109))) (let ((.def_215 (and .def_214 .def_213))) (let ((.def_216 (not .def_215))) (let ((.def_217 (and .def_216 .def_211))) (let ((.def_218 (or .def_217 .def_208))) (let ((.def_219 (not .def_218))) (let ((.def_220 (* (- 1) x7))) (let ((.def_221 (+ .def_192 .def_220))) (let ((.def_222 (< .def_221 (- 1)))) (let ((.def_223 (and .def_80 .def_222))) (let ((.def_224 (or A5 A9))) (let ((.def_225 (not .def_224))) (let ((.def_226 (or .def_225 .def_223))) (let ((.def_227 (not .def_226))) (let ((.def_228 (+ .def_76 .def_65))) (let ((.def_229 (< .def_228 1))) (let ((.def_230 (or .def_201 .def_229))) (let ((.def_231 (+ .def_192 .def_60))) (let ((.def_232 (< .def_231 (- 1)))) (let ((.def_233 (not .def_232))) (let ((.def_234 (= .def_233 .def_7))) (let ((.def_235 (not .def_234))) (let ((.def_236 (= .def_235 .def_230))) (let ((.def_237 (and .def_236 .def_227))) (let ((.def_238 (not .def_237))) (let ((.def_239 (* 1 x1))) (let ((.def_240 (+ .def_192 .def_239))) (let ((.def_241 (< .def_240 1))) (let ((.def_242 (< .def_19 1))) (let ((.def_243 (not .def_242))) (let ((.def_244 (and .def_243 .def_241))) (let ((.def_245 (not .def_244))) (let ((.def_246 (+ .def_47 .def_76))) (let ((.def_247 (< .def_246 (- 1)))) (let ((.def_248 (= .def_247 A1))) (let ((.def_249 (and .def_248 .def_245))) (let ((.def_250 (+ .def_30 .def_47))) (let ((.def_251 (< .def_250 (- 1)))) (let ((.def_252 (not .def_251))) (let ((.def_253 (and .def_28 .def_252))) (let ((.def_254 (not .def_253))) (let ((.def_255 (< .def_48 (- 1)))) (let ((.def_256 (and .def_255 A9))) (let ((.def_257 (and .def_256 .def_254))) (let ((.def_258 (and .def_257 .def_249))) (let ((.def_259 (not .def_258))) (let ((.def_260 (or .def_259 .def_238))) (let ((.def_261 (or .def_260 .def_219))) (let ((.def_262 (+ .def_14 .def_122))) (let ((.def_263 (< .def_262 (- 1)))) (let ((.def_264 (not .def_263))) (let ((.def_265 (or A5 .def_264))) (let ((.def_266 (and A2 A1))) (let ((.def_267 (not .def_266))) (let ((.def_268 (or .def_267 .def_265))) (let ((.def_269 (< .def_76 1))) (let ((.def_270 (and .def_269 .def_54))) (let ((.def_271 (+ .def_19 .def_239))) (let ((.def_272 (< .def_271 1))) (let ((.def_273 (not .def_272))) (let ((.def_274 (and .def_28 .def_273))) (let ((.def_275 (not .def_274))) (let ((.def_276 (or .def_275 .def_270))) (let ((.def_277 (or .def_276 .def_268))) (let ((.def_278 (not .def_277))) (let ((.def_279 (+ .def_174 .def_130))) (let ((.def_280 (< .def_279 1))) (let ((.def_281 (not .def_280))) (let ((.def_282 (and .def_281 A7))) (let ((.def_283 (< .def_14 (- 1)))) (let ((.def_284 (or A7 .def_283))) (let ((.def_285 (not .def_284))) (let ((.def_286 (and .def_285 .def_282))) (let ((.def_287 (not .def_286))) (let ((.def_288 (+ .def_30 .def_239))) (let ((.def_289 (< .def_288 1))) (let ((.def_290 (not .def_289))) (let ((.def_291 (or .def_290 .def_191))) (let ((.def_292 (not .def_291))) (let ((.def_293 (or A3 .def_146))) (let ((.def_294 (and .def_293 .def_292))) (let ((.def_295 (not .def_294))) (let ((.def_296 (and .def_295 .def_287))) (let ((.def_297 (= .def_296 .def_278))) (let ((.def_298 (not .def_297))) (let ((.def_299 (< .def_19 (- 1)))) (let ((.def_300 (not .def_299))) (let ((.def_301 (and .def_169 .def_300))) (let ((.def_302 (not .def_301))) (let ((.def_303 (< .def_189 1))) (let ((.def_304 (not .def_303))) (let ((.def_305 (and .def_304 .def_133))) (let ((.def_306 (and .def_305 .def_302))) (let ((.def_307 (not .def_306))) (let ((.def_308 (+ .def_174 .def_239))) (let ((.def_309 (< .def_308 (- 1)))) (let ((.def_310 (not .def_309))) (let ((.def_311 (and .def_36 .def_310))) (let ((.def_312 (+ .def_30 .def_0))) (let ((.def_313 (< .def_312 1))) (let ((.def_314 (and .def_313 A6))) (let ((.def_315 (not .def_314))) (let ((.def_316 (or .def_315 .def_311))) (let ((.def_317 (not .def_316))) (let ((.def_318 (= .def_317 .def_307))) (let ((.def_319 (not .def_318))) (let ((.def_320 (and A3 .def_28))) (let ((.def_321 (< .def_30 (- 1)))) (let ((.def_322 (not .def_321))) (let ((.def_323 (< .def_174 1))) (let ((.def_324 (or .def_323 .def_322))) (let ((.def_325 (= .def_324 .def_320))) (let ((.def_326 (not .def_325))) (let ((.def_327 (+ .def_239 .def_65))) (let ((.def_328 (< .def_327 (- 1)))) (let ((.def_329 (not .def_328))) (let ((.def_330 (or .def_329 A5))) (let ((.def_331 (not .def_330))) (let ((.def_332 (and .def_99 A0))) (let ((.def_333 (or .def_332 .def_331))) (let ((.def_334 (not .def_333))) (let ((.def_335 (= .def_334 .def_326))) (let ((.def_336 (and .def_335 .def_319))) (let ((.def_337 (= .def_336 .def_298))) (let ((.def_338 (not .def_337))) (let ((.def_339 (and .def_338 .def_261))) (let ((.def_340 (and .def_339 .def_185))) (let ((.def_341 (not .def_340))) (let ((.def_342 (<= x9 1))) (let ((.def_343 (<= 0 x9))) (let ((.def_344 (<= x8 1))) (let ((.def_345 (<= 0 x8))) (let ((.def_346 (<= x7 1))) (let ((.def_347 (<= 0 x7))) (let ((.def_348 (<= x6 1))) (let ((.def_349 (<= 0 x6))) (let ((.def_350 (<= x5 1))) (let ((.def_351 (<= 0 x5))) (let ((.def_352 (<= x4 1))) (let ((.def_353 (<= 0 x4))) (let ((.def_354 (<= x3 1))) (let ((.def_355 (<= 0 x3))) (let ((.def_356 (<= x2 1))) (let ((.def_357 (<= 0 x2))) (let ((.def_358 (<= x1 1))) (let ((.def_359 (<= 0 x1))) (let ((.def_360 (<= x0 1))) (let ((.def_361 (<= 0 x0))) (let ((.def_362 (and .def_361 .def_360 .def_359 .def_358 .def_357 .def_356 .def_355 .def_354 .def_353 .def_352 .def_351 .def_350 .def_349 .def_348 .def_347 .def_346 .def_345 .def_344 .def_343 .def_342 .def_341))) .def_362))))))))))))))))))))))))))))))))))))))))))))))))))))))))))))))))))))))))))))))))))))))))))))))))))))))))))))))))))))))))))))))))))))))))))))))))))))))))))))))))))))))))))))))))))))))))))))))))))))))))))))))))))))))))))))))))))))))))))))))))))))))))))))))))))))))))))))))))))))))))))))))))))))))))))))))))))))))))))))))))))))))))))))))))))))))))))))))))))))))))))))
(check-sat)
